000 000 -99 000 000 -99 000 -99 -99 -99 -99 -99 -99 000 -99 -99 000 000 -99 -99 -99 -99 -99 -99 -99 -99 -99 -99 000 000 000
000 000 -99 000 000 000 000 -99 -99 -99 -99 -99 -99 000 000 -99 000 000 -99 -99 -99 000 000 000 -99 000 000 -99 -99 000 000
000 000 000 -99 000 000 -99 000 -99 -99 -99 -99 -99 000 000 000 000 000 -99 -99 -99 000 000 001 004 000 000 000 000 000 000
000 000 000 000 000 000 000 -99 -99 -99 -99 -99 000 -99 000 000 000 -99 -99 -99 -99 -99 000 001 026 000 000 000 000 000 000
000 000 000 000 000 000 000 000 -99 -99 -99 -99 000 000 000 000 000 -99 -99 -99 -99 000 000 000 009 000 000 000 000 000 000
000 000 000 000 000 000 000 000 000 -99 -99 -99 000 000 -99 000 000 -99 -99 -99 -99 000 000 000 005 000 000 000 000 000 -99
000 000 000 000 000 000 000 000 000 000 -99 -99 -99 000 -99 -99 -99 -99 -99 -99 -99 000 000 000 002 000 000 -99 -99 -99 000
000 000 000 000 000 000 000 000 000 000 -99 -99 -99 000 -99 -99 -99 -99 -99 -99 -99 -99 -99 000 000 000 000 -99 -99 -99 000
000 000 000 000 000 000 000 000 000 000 -99 -99 -99 -99 -99 -99 -99 -99 -99 -99 000 000 -99 000 000 000 000 -99 000 000 000
000 000 000 000 000 000 000 000 000 000 000 -99 -99 -99 -99 -99 -99 -99 -99 -99 000 000 -99 -99 -99 000 000 000 000 000 000
000 000 000 000 000 000 000 000 000 000 000 000 -99 -99 -99 -99 -99 -99 -99 -99 -99 000 000 -99 000 000 000 000 000 000 000
-99 000 000 000 000 000 000 000 -99 000 000 000 000 -99 -99 000 000 000 -99 -99 000 000 000 -99 000 000 000 000 000 000 000
000 000 000 000 000 000 000 000 000 -99 000 000 000 -99 -99 000 000 000 000 -99 -99 -99 000 000 -99 000 000 000 000 000 -99
000 000 000 000 000 000 000 000 -99 -99 -99 000 -99 -99 -99 -99 -99 000 000 -99 -99 -99 000 000 -99 000 000 -99 000 000 -99
000 000 000 000 000 000 000 -99 000 -99 -99 -99 -99 000 -99 -99 -99 000 000 -99 -99 -99 000 000 -99 000 000 000 000 000 000
000 000 000 000 000 000 000 000 000 -99 -99 -99 -99 000 000 -99 -99 000 000 -99 -99 -99 000 000 -99 -99 000 000 000 000 000
000 000 000 000 000 000 000 000 000 -99 -99 -99 -99 000 000 -99 -99 000 -99 -99 -99 -99 000 000 -99 -99 000 000 000 000 000
000 000 000 000 000 000 000 000 000 -99 -99 -99 -99 000 000 -99 000 000 -99 -99 -99 -99 000 000 -99 -99 000 000 000 -99 000
000 000 000 000 000 000 000 000 000 -99 -99 -99 -99 -99 000 -99 000 000 -99 -99 -99 -99 000 -99 -99 -99 -99 000 -99 -99 000
000 000 000 000 000 000 000 000 000 -99 000 000 -99 -99 -99 -99 000 000 -99 -99 -99 -99 000 -99 -99 -99 -99 -99 -99 -99 -99
000 000 000 000 000 000 000 000 000 -99 000 -99 -99 -99 -99 000 000 000 -99 -99 -99 -99 000 -99 -99 -99 -99 -99 -99 -99 -99
000 000 000 000 000 000 000 000 -99 -99 -99 -99 -99 -99 -99 000 000 -99 000 000 -99 -99 000 -99 -99 -99 -99 -99 -99 -99 -99
-99 000 -99 000 000 000 000 000 000 -99 -99 -99 -99 -99 -99 000 000 -99 000 000 000 000 000 -99 -99 -99 -99 -99 -99 -99 -99
-99 000 000 000 000 000 000 000 000 -99 -99 -99 -99 000 000 000 000 -99 -99 000 000 000 000 -99 -99 -99 -99 -99 -99 -99 -99
-99 000 000 000 000 000 000 000 000 -99 -99 -99 -99 -99 000 000 000 000 -99 000 000 000 000 -99 -99 -99 -99 -99 -99 -99 -99
-99 -99 000 000 000 000 000 000 000 000 000 -99 -99 -99 000 000 000 000 -99 -99 000 -99 000 -99 -99 -99 -99 -99 -99 -99 000
000 -99 000 000 000 000 000 000 000 -99 -99 -99 -99 -99 000 000 000 000 000 -99 -99 -99 -99 -99 -99 -99 -99 -99 -99 000 000
000 000 000 000 -99 000 000 000 -99 -99 -99 -99 -99 -99 000 000 000 000 -99 -99 -99 -99 -99 -99 -99 -99 -99 -99 -99 000 000
000 000 000 000 -99 000 000 000 -99 -99 -99 -99 -99 -99 000 000 000 000 -99 -99 -99 -99 -99 -99 -99 -99 -99 -99 -99 000 000
000 000 000 000 -99 000 000 000 000 -99 -99 -99 -99 -99 000 000 000 000 -99 -99 -99 000 -99 000 000 000 -99 -99 -99 -99 -99
000 000 000 -99 000 000 000 000 000 -99 -99 -99 -99 -99 000 000 000 000 000 000 -99 000 -99 000 000 000 000 -99 -99 -99 -99
000 000 000 -99 000 000 000 000 000 -99 -99 -99 -99 000 000 000 000 000 000 -99 000 000 000 000 000 000 000 -99 000 000 -99
000 000 000 -99 000 000 000 000 000 -99 -99 -99 -99 000 000 000 000 000 000 -99 -99 000 000 000 000 000 000 000 000 000 000
-99 -99 000 -99 000 000 000 000 -99 -99 -99 -99 -99 000 000 000 000 000 000 -99 -99 000 000 000 000 000 000 000 000 000 000
-99 -99 000 000 000 000 000 -99 -99 -99 -99 -99 -99 000 000 000 000 000 000 -99 000 000 000 000 000 000 000 000 000 000 000
-99 -99 000 000 000 -99 -99 -99 -99 -99 -99 -99 -99 000 000 000 000 000 000 -99 -99 000 -99 -99 -99 000 000 000 000 000 -99
000 000 -99 000 000 -99 -99 -99 -99 -99 -99 -99 -99 -99 000 -99 000 000 000 -99 -99 000 -99 000 000 000 000 000 -99 -99 -99
000 000 -99 000 000 -99 -99 -99 000 -99 -99 -99 -99 -99 -99 -99 000 000 000 -99 -99 000 -99 000 000 000 000 -99 -99 -99 -99
000 000 -99 -99 000 -99 -99 -99 -99 -99 -99 -99 -99 -99 000 -99 -99 000 -99 -99 000 000 000 000 000 000 -99 -99 -99 -99 -99
000 -99 -99 000 -99 -99 -99 -99 -99 -99 -99 -99 -99 000 -99 -99 -99 -99 -99 -99 000 000 000 000 -99 -99 -99 -99 -99 -99 -99
000 000 -99 000 -99 -99 -99 -99 -99 -99 -99 -99 -99 000 000 -99 -99 -99 -99 -99 000 000 -99 000 -99 -99 -99 -99 -99 -99 -99
-99 -99 -99 000 -99 -99 -99 -99 -99 -99 -99 -99 -99 000 000 000 -99 -99 -99 000 000 000 -99 -99 -99 -99 -99 -99 -99 -99 -99
-99 -99 -99 -99 -99 -99 -99 -99 -99 -99 -99 000 000 -99 -99 000 -99 -99 -99 000 000 -99 -99 -99 -99 -99 -99 -99 -99 000 -99
-99 -99 -99 -99 -99 -99 000 000 -99 -99 -99 000 000 -99 000 000 -99 -99 000 000 000 -99 -99 -99 -99 000 -99 000 000 000 -99
-99 -99 -99 -99 -99 -99 000 000 -99 -99 -99 000 000 -99 000 -99 -99 -99 000 000 000 -99 -99 -99 000 -99 000 000 000 -99 -99
-99 -99 -99 -99 -99 -99 -99 -99 -99 -99 -99 -99 -99 -99 -99 -99 -99 000 000 000 -99 -99 -99 -99 000 000 000 000 000 -99 -99
-99 -99 -99 -99 -99 -99 -99 -99 -99 -99 -99 -99 -99 -99 -99 -99 -99 000 000 -99 -99 -99 -99 -99 -99 000 000 000 -99 -99 -99
-99 -99 -99 -99 -99 -99 -99 -99 -99 -99 -99 -99 -99 -99 -99 -99 -99 -99 -99 -99 -99 -99 -99 -99 -99 000 000 000 -99 -99 -99
-99 -99 -99 -99 -99 -99 -99 -99 -99 -99 -99 -99 -99 -99 -99 -99 -99 -99 -99 -99 -99 -99 -99 -99 -99 000 000 000 -99 -99 -99
-99 -99 -99 -99 -99 -99 -99 -99 -99 -99 -99 -99 -99 -99 -99 -99 -99 -99 -99 -99 -99 -99 -99 -99 -99 -99 000 -99 -99 -99 -99
-99 -99 -99 -99 -99 -99 -99 -99 -99 -99 -99 -99 -99 -99 -99 -99 -99 -99 -99 -99 -99 -99 -99 -99 -99 -99 -99 -99 -99 -99 -99
-99 -99 -99 -99 -99 -99 -99 -99 -99 -99 -99 -99 -99 -99 -99 -99 -99 -99 -99 -99 -99 -99 -99 -99 -99 -99 -99 -99 -99 -99 -99
-99 -99 -99 -99 -99 -99 -99 -99 -99 -99 -99 -99 -99 -99 -99 -99 -99 -99 -99 -99 -99 -99 -99 -99 -99 -99 -99 -99 -99 -99 -99
-99 -99 -99 -99 -99 -99 -99 -99 -99 -99 -99 -99 -99 -99 -99 -99 -99 -99 -99 -99 -99 -99 -99 -99 -99 -99 -99 -99 -99 -99 -99
-99 -99 -99 -99 -99 -99 -99 -99 -99 -99 -99 -99 -99 -99 -99 -99 -99 -99 -99 -99 -99 -99 -99 -99 -99 -99 -99 -99 -99 -99 -99
